NAME : eil76.opt.tour
COMMENT : Optimal tour for eil76.tsp  (657.3141)
TYPE : TOUR
DIMENSION : 76
TOUR_SECTION
24
49
63
23
56
33
73
1
43
41
42
64
62
22
28
61
21
36
69
71
60
70
20
37
47
29
5
15
57
45
27
13
54
52
34
7
53
46
8
35
19
14
59
11
66
65
38
10
31
58
72
39
9
32
50
25
55
18
44
3
40
12
17
51
6
68
4
75
76
26
67
48
30
74
2
16
-1
EOF